2811142
21,129,224,221,17,125,226,127,168,79,59,115,174,76,32,183,145,227,201,113,122,65,138,152,199,39,101,166,96,200,10,8,110,14,126,86,147,135,31,197,120,159,154,111,220,87,151,40,26,49,162,63,207,215,55,161,165,179,27,72,123,58,93,198,12,228,150,171,186,57,11,15,52,204,97,214,3,34,156,144,185,211,30,139,213,206,80,164,119,180,105,100,216,54,92,190,99,106,121,158,2,225,177,69,195,134,172,85,191,149,208,193,1,16,19,173,181,67,114,160,13,194,124,178,118,83,43,61,182,219,24,222,53,175,128,73,51,22,107,68,20,5,60,212,42,44,131,70,157,167,148,84,218,46,41,77,141,18,56,202,66,47,104,82,95,25,203,103,187,188,132,230,45,38,153,6,223,9,117,7,94,62,130,108,155,112,35,210,50,75,102,116,169,133,28,74,98,140,192,64,48,136,209,91,37,71,176,23,143,137,184,81,89,163,78,36,229,189,205,196,29,33,217,146,90,170,88,109,142,4